0 39098 38682 37847 55855 41944 35948 34686

38143 0 8188 3674 20286 11451 9945 14081

35961 7126 0 5567 23883 4803 3327 7433

36845 3119 6142 0 19478 9404 8647 12035

55734 20482 14215 20562 0 10320 25034 17336

39879 11043 3921 9485 10425 0 6967 4392

32650 8970 4050 7720 25728 8249 0 5486

33115 13757 6634 12198 16116 4981 5421 0